n_res = 4;
rc = [ 19, 30, 26, 24 ];
n_tasks = 30;
d = [ 9, 8, 1, 6, 6, 5, 6, 8, 1, 6, 8, 2, 5, 5, 5, 7, 9, 5, 6, 1, 8, 2, 6, 9, 10, 2, 4, 6, 3, 4 ];
rr = [| 3, 8, 2, 5, 7, 1, 3, 1, 4, 9, 2, 0, 0, 6, 0, 5, 0, 3, 3, 1, 0, 10, 3, 3, 4, 9, 4, 9, 0, 0
      | 0, 7, 2, 0, 2, 0, 6, 0, 5, 7, 10, 7, 10, 8, 4, 9, 8, 0, 4, 0, 9, 0, 2, 10, 7, 0, 10, 5, 0, 10
      | 1, 0, 5, 0, 1, 9, 1, 0, 2, 0, 5, 9, 8, 7, 7, 5, 9, 6, 0, 7, 6, 0, 4, 0, 0, 7, 7, 9, 1, 0
      | 0, 0, 2, 10, 5, 3, 0, 9, 1, 1, 4, 2, 8, 7, 0, 4, 5, 2, 5, 9, 7, 7, 9, 2, 10, 2, 5, 6, 8, 8 |];
suc = [ { 2 }, 
        { 1 }, 
        { 4 }, 
        { 3 }, 
        { 6 }, 
        { 5 }, 
        { 8 }, 
        { 7 }, 
        { 10 }, 
        { 9 }, 
        { 12 }, 
        { 11 }, 
        { 14 }, 
        { 13 }, 
        { 16 }, 
        { 15 }, 
        { 18 }, 
        { 17 }, 
        { 20 }, 
        { 19 }, 
        { 22 }, 
        { 21 }, 
        { 24 }, 
        { 23 }, 
        { 26 }, 
        { 25 }, 
        { 28 }, 
        { 27 }, 
        { 30 }, 
        { 29 }]; 
